unsat
(:cnf-encoding-aux-vars 153
 :elim-unconstrained    1
 :max-memory            19.65
 :memory                19.00
 :nlsat-arith-var       18
 :nlsat-atoms           247
 :nlsat-bool-var        191
 :nlsat-clauses         752
 :nlsat-conflicts       7
 :nlsat-decisions       8
 :nlsat-propagations    33
 :num-allocs            333358
 :rlimit-count          68056
 :solve-eqs-elim-vars   146
 :solve-eqs-steps       499
 :time                  0.02
 :total-time            0.03)
